NAME: random_60_7
TYPE: TSP
COMMENT: random_60_7
DIMENSION: 60
EDGE_WEIGHT_TYPE: EUC_2D
NODE_COORD_SECTION
1 359 71
2 285 211
3 496 365
4 445 420
5 350 372
6 416 402
7 381 488
8 290 67
9 218 231
10 289 151
11 164 46
12 203 369
13 386 235
14 284 240
15 152 131
16 118 485
17 211 420
18 176 170
19 359 211
20 181 111
21 449 68
22 470 59
23 434 117
24 197 162
25 121 490
26 282 379
27 162 314
28 8 305
29 171 106
30 122 177
31 127 146
32 140 203
33 159 319
34 47 497
35 367 220
36 213 365
37 308 18
38 184 235
39 461 148
40 330 477
41 14 72
42 252 430
43 18 377
44 163 354
45 253 19
46 214 218
47 349 422
48 352 360
49 109 383
50 257 340
51 310 267
52 382 13
53 324 323
54 94 9
55 431 140
56 289 38
57 178 204
58 275 222
59 182 39
60 421 341
